Solver command line: []

Read LP format model from file C:\Users\wlhlm\AppData\Local\Temp\tmpuhhq5jd6.pyomo.lp
Reading time = 95.29 seconds
objective: 1005744 rows, 878399 columns, 79411710 nonzeros
Set parameter MIPGap to value 0.03
Gurobi Optimizer version 12.0.1 build v12.0.1rc0 (win64 - Windows 11.0 (26100.2))

CPU model: Intel(R) Core(TM) Ultra 7 258V, instruction set [SSE2|AVX|AVX2]
Thread count: 8 physical cores, 8 logical processors, using up to 8 threads

Non-default parameters:
MIPGap  0.03

Optimize a model with 1005744 rows, 878399 columns and 79411710 nonzeros
Model fingerprint: 0xe529c1e7
Model has 8783 quadratic constraints
Variable types: 755424 continuous, 122975 integer (105408 binary)
Coefficient statistics:
  Matrix range     [8e-03, 2e+02]
  QMatrix range    [1e+00, 1e+00]
  Objective range  [1e-02, 1e+03]
  Bounds range     [1e+00, 3e+00]
  RHS range        [8e-05, 1e+04]
Presolve removed 96624 rows and 122976 columns (presolve time = 18s)...
Presolve removed 158112 rows and 122976 columns (presolve time = 48s)...
Presolve removed 619252 rows and 496275 columns (presolve time = 64s)...
Presolve removed 658759 rows and 531413 columns (presolve time = 78s)...
Presolve removed 680694 rows and 548981 columns (presolve time = 94s)...
Presolve removed 698960 rows and 556145 columns (presolve time = 100s)...
Presolve removed 698960 rows and 556145 columns (presolve time = 100s)...
Presolve removed 698969 rows and 556154 columns (presolve time = 115s)...
Presolve removed 698969 rows and 558936 columns (presolve time = 123s)...
Presolve removed 701751 rows and 558936 columns (presolve time = 128s)...
Presolve removed 704608 rows and 561793 columns (presolve time = 133s)...
Presolve removed 704891 rows and 562076 columns (presolve time = 135s)...
Presolve removed 704891 rows and 562076 columns (presolve time = 147s)...
Presolve removed 704891 rows and 562076 columns (presolve time = 159s)...
Presolve removed 704891 rows and 562076 columns (presolve time = 185s)...
Presolve removed 704891 rows and 562076 columns (presolve time = 197s)...
Presolve removed 713674 rows and 562076 columns (presolve time = 216s)...
Presolve removed 713674 rows and 562076 columns (presolve time = 227s)...
Presolve removed 713674 rows and 562077 columns (presolve time = 230s)...
Presolve removed 713674 rows and 562077 columns (presolve time = 235s)...
Presolve removed 713674 rows and 562077 columns (presolve time = 240s)...
Presolve removed 713674 rows and 562077 columns (presolve time = 261s)...
Presolve removed 800680 rows and 657751 columns
Presolve time: 262.78s
Presolved: 205064 rows, 220648 columns, 636769 nonzeros
Variable types: 148749 continuous, 71899 integer (63116 binary)
Performing another presolve...
Presolve removed 61487 rows and 61488 columns (presolve time = 10s)...
Presolve removed 61487 rows and 61488 columns
Presolve time: 9.82s
Deterministic concurrent LP optimizer: primal and dual simplex
Showing primal log only...


Root simplex log...

Iteration    Objective       Primal Inf.    Dual Inf.      Time
       0    4.4271101e+07   4.820007e+07   4.757259e+13    277s
   68382    3.5370783e+07   5.822474e+03   6.612777e+09    280s
Concurrent spin time: 0.01s

Solved with dual simplex

Root simplex log...

Iteration    Objective       Primal Inf.    Dual Inf.      Time
   47205    2.1105769e+07   0.000000e+00   0.000000e+00    280s

Root relaxation: objective 2.110577e+07, 47205 iterations, 4.28 seconds (3.50 work units)
Total elapsed time = 280.33s (DegenMoves)

    Nodes    |    Current Node    |     Objective Bounds      |     Work
 Expl Unexpl |  Obj  Depth IntInf | Incumbent    BestBd   Gap | It/Node Time

     0     0 2.1106e+07    0  584          - 2.1106e+07      -     -  284s
H    0     0                    2.137703e+07 2.1106e+07  1.27%     -  285s

Explored 1 nodes (56158 simplex iterations) in 287.15 seconds (65.02 work units)
Thread count was 8 (of 8 available processors)

Solution count 1: 2.1377e+07 

Optimal solution found (tolerance 3.00e-02)
Best objective 2.137702815681e+07, best bound 2.110576932870e+07, gap 1.2689%

